100
6 4
34 0
30 1
11 4
6 1
0 4
8 3
2 4
5 0
14 1
11 3
3 4
13 2
16 3
13 4
16 0
35 4
31 4
22 4
26 3
9 0
0 0
24 3
36 4
40 0
12 3
14 2
23 3
4 0
30 2
17 0
23 0
12 4
35 2
39 2
16 4
10 0
29 3
19 1
7 4
17 2
28 1
40 1
26 4
6 0
12 0
27 4
40 4
30 4
12 1
44 1
41 0
8 0
10 4
15 4
3 3
13 3
7 0
4 2
40 2
5 3
10 3
4 4
17 3
15 1
15 0
20 4
3 0
11 0
19 2
39 0
18 4
19 0
36 3
25 0
39 4
8 4
42 0
35 0
5 4
1 0
43 0
13 0
7 1
36 2
42 1
21 1
24 4
28 2
1 3
36 0
20 0
32 4
27 0
41 3
32 3
41 4
31 0
18 3
32 1

